NAME : u1060.opt.tour
COMMENT : Optimum tour for u1060.tsp (224094)
TYPE : TOUR
DIMENSION : 1060
TOUR_SECTION
1
3
2
5
6
7
8
9
122
123
15
16
18
17
19
20
14
13
21
22
23
84
100
87
86
85
47
48
83
88
92
89
90
91
93
94
99
98
102
101
103
104
105
106
107
108
97
96
95
892
890
891
893
882
881
880
872
871
870
873
874
878
879
875
876
877
885
887
886
884
883
889
110
109
111
117
119
118
121
120
116
115
113
112
888
114
132
131
130
128
129
124
125
126
127
137
136
135
134
133
138
139
140
141
142
143
144
145
146
147
148
149
150
151
152
153
154
155
157
158
156
165
166
160
159
161
162
163
164
167
168
169
170
171
172
173
174
175
176
177
178
179
180
181
182
183
184
186
185
187
188
189
190
191
192
193
205
194
195
199
204
203
202
201
207
208
209
217
212
211
210
206
213
214
216
215
867
868
869
909
910
911
908
912
913
907
905
904
906
903
902
900
901
895
894
896
897
898
899
927
926
925
924
918
917
916
914
915
919
921
922
920
923
851
850
849
848
847
852
846
845
844
843
842
841
839
840
243
241
242
244
246
245
314
313
309
315
308
307
316
317
816
306
318
319
320
302
305
304
303
301
298
300
299
297
296
295
294
293
290
291
292
289
288
287
312
311
310
248
247
240
239
238
237
231
230
228
229
853
854
227
226
225
856
855
857
858
860
859
220
861
862
863
864
865
866
218
219
221
222
223
224
233
232
234
235
236
251
249
250
252
253
255
257
258
263
262
261
260
259
200
198
197
196
267
266
264
265
256
254
286
285
284
283
282
281
374
390
389
276
277
278
279
280
268
272
271
270
273
269
275
274
391
392
393
394
395
396
405
404
397
398
399
400
403
401
402
428
429
430
431
432
433
434
436
435
440
439
438
437
601
602
603
605
604
607
609
608
606
610
611
612
613
614
615
616
617
618
624
619
620
621
622
623
625
626
628
627
629
630
631
632
633
634
635
636
637
638
639
640
641
644
642
669
643
662
664
663
660
661
645
646
647
648
651
650
649
652
653
654
659
655
656
666
657
658
665
667
668
670
673
672
674
675
671
683
684
685
686
687
688
689
690
682
681
680
676
677
679
678
716
717
718
719
715
714
713
712
711
710
709
720
721
722
708
707
706
705
704
703
702
691
692
693
694
695
696
697
591
590
589
588
587
586
584
585
580
581
583
582
698
701
699
700
723
724
725
726
727
728
729
731
730
735
734
732
733
739
740
741
742
743
744
745
746
747
748
749
538
537
536
750
751
752
753
754
755
756
757
758
759
760
761
762
763
764
765
766
767
769
770
768
777
778
776
771
772
773
774
775
779
780
781
782
783
784
785
786
787
788
789
790
791
792
793
794
795
796
797
798
799
800
801
802
803
804
805
343
342
344
347
348
346
345
349
355
356
357
358
362
361
360
359
366
367
369
368
490
489
488
487
486
485
484
492
491
493
494
495
498
502
501
500
499
507
508
509
510
511
506
513
512
505
514
517
515
516
521
522
523
524
525
519
520
518
504
503
497
496
483
482
475
476
472
474
473
471
470
466
465
467
468
469
477
478
480
481
479
528
529
530
531
527
526
532
533
535
534
539
542
543
544
547
546
545
738
737
575
576
736
578
577
579
574
573
572
568
566
567
570
569
571
455
454
453
595
592
593
594
596
597
598
452
451
446
599
600
445
444
443
441
442
448
447
449
450
458
459
457
456
559
558
560
561
557
562
563
564
565
548
549
541
540
550
551
552
553
554
555
556
460
461
462
463
464
423
424
425
426
427
418
417
416
419
414
415
413
420
422
421
412
411
410
409
408
407
406
388
387
386
385
384
383
382
381
380
379
378
377
376
375
373
372
371
370
365
364
363
353
354
352
350
351
327
326
321
322
323
324
325
330
329
328
339
340
341
338
337
336
335
333
331
332
334
813
807
806
808
809
810
811
812
814
815
817
818
821
820
819
837
835
822
823
824
826
825
831
832
830
829
828
827
833
834
836
838
939
937
938
935
936
940
941
942
944
943
967
968
969
966
948
945
946
947
934
933
932
929
931
930
928
953
952
954
951
955
956
950
949
964
965
963
962
961
960
957
959
958
80
79
78
82
81
77
76
75
74
73
72
71
70
69
68
67
993
992
991
990
986
984
980
979
978
977
976
975
971
970
972
973
974
982
981
983
985
987
988
989
994
995
996
997
998
999
1002
1009
1008
1003
1004
1005
1006
1024
1023
1025
1026
1022
1007
1010
1011
1012
1001
1000
1014
1013
1015
1016
1017
1018
1019
1020
1021
1027
1028
1030
1029
64
65
66
63
62
60
61
55
59
58
56
57
1034
1035
1033
1032
1031
1036
1037
1038
1045
1046
1047
1048
1049
1050
1043
1044
1042
1041
1040
1039
37
38
39
54
53
52
51
50
49
46
45
44
43
42
40
41
35
36
34
33
25
24
26
27
28
29
32
31
30
12
11
10
1053
1054
1051
1052
1055
1056
1057
1058
1059
1060
4
-1
EOF